(set-info :smt-lib-version 2.6)
(set-logic QF_SLIA)
(set-info :source |
Generated by: Dmitry Blotsky1, Federico Mora, Murphy Berzish, Yunhui Zheng, Ifaz Kabir, Vijay Ganesh, Zhengyang Lu
Generated on: 2018-01-24
Generator: StringFuzz
Application: Evaluate string solvers
Target solver: Z3str3, CVC4, Z3str2, Norn
Publications: Blotsky, D., Mora, F., Berzish, M., Zheng, Y., Kabir, I., & Ganesh, V. (2018). Stringfuzz: A fuzzer for string solvers. In CAV 2018.
Description: transformed by StringFuzz, a modular string and regex fuzzer, from an industrial benchmark
|)
(set-info :license "https://creativecommons.org/licenses/by/4.0/")
(set-info :category "random")
(set-info :status unknown)

(declare-const x String)
(assert (= x "So>c,0y>@!^1bwySoS' 'j4RRqu'\x0b'VJpA>cV>>c,0y>PxGqv'f\\fa>c,0S>_1#>cV>Za3o>cW>A3g-WP.*>cW>0u6Q-CH"))
(assert (str.in_re x (re.* (re.union (str.to_re "yT@#>cV>>$_NMW'\x0b'%*&o") (str.to_re "o:'\x0b']RR'\x0c'fm")))))
(check-sat)

(exit)
